h=8;
w=8;
left=[2, 0, 0, 2, 0, 0, 0, 0];
right=[3, 1, 2, 0, 3, 0, 0, 0];
top=[2, 4, 3, 0, 0, 0, 0, 0];
down=[0, 2, 2, 2, 0, 0, 0, 0];
b=[|0,0,0,0,0,3,0,5|0,0,0,0,2,0,0,8|8,3,5,1,4,0,0,7|7,1,2,4,3,0,0,6|0,7,4,0,0,0,0,0|0,8,6,3,0,0,0,1|0,5,8,0,7,0,6,3|0,0,0,7,0,0,8,0|]